solution status: optimal solution found
objective value:                     123126.493596562
d11(0,0)                                            1 	(obj:0)
d11(1,1)                                            1 	(obj:0)
d11(2,4)                                            1 	(obj:0)
d11(2,5)                                            1 	(obj:0)
d11(2,7)                                            1 	(obj:0)
d11(2,8)                                            1 	(obj:0)
d11(2,10)                                           1 	(obj:0)
d11(2,11)                                           1 	(obj:0)
d11(3,13)                                           1 	(obj:0)
d11(3,14)                                           1 	(obj:0)
d11(3,15)                                           1 	(obj:0)
d11(3,16)                                           1 	(obj:0)
d11(3,17)                                           1 	(obj:0)
d11(3,19)                                           1 	(obj:0)
d11(3,20)                                           1 	(obj:0)
d11(3,21)                                           1 	(obj:0)
d11(3,22)                                           1 	(obj:0)
d11(3,23)                                           1 	(obj:0)
d11(3,24)                                           1 	(obj:0)
d11(3,25)                                           1 	(obj:0)
d11(3,26)                                           1 	(obj:0)
d11(3,27)                                           1 	(obj:0)
d11(3,28)                                           1 	(obj:0)
d11(3,29)                                           1 	(obj:0)
d11(3,30)                                           1 	(obj:0)
d11(3,31)                                           1 	(obj:0)
d11(3,32)                                           1 	(obj:0)
d11(3,33)                                           1 	(obj:0)
d11(3,34)                                           1 	(obj:0)
d11(3,35)                                           1 	(obj:0)
d11(3,36)                                           1 	(obj:0)
d11(3,37)                                           1 	(obj:0)
d11(3,38)                                           1 	(obj:0)
d11(3,39)                                           1 	(obj:0)
d12(1,3)                                            1 	(obj:0)
d21(3,13)                                           1 	(obj:0)
d21(3,14)                                           1 	(obj:0)
d21(3,15)                                           1 	(obj:0)
d21(3,16)                                           1 	(obj:0)
d21(3,17)                                           1 	(obj:0)
d21(3,19)                           0.999999999999998 	(obj:0)
d21(3,22)                                           1 	(obj:0)
d21(3,23)                                           1 	(obj:0)
d21(3,25)                                           1 	(obj:0)
d21(3,31)                                           1 	(obj:0)
STE(1,1)                             7697.23399666665 	(obj:0)
STE(0,0)                                         9450 	(obj:0)
STE(1,2)                                         8694 	(obj:0)
STE(1,3)                             9606.56333384999 	(obj:0)
STE(2,4)                             4789.12311615002 	(obj:0)
STE(2,5)                             5785.88911948331 	(obj:0)
STE(2,6)                             6941.23399666665 	(obj:0)
STE(2,7)                             5785.88911948337 	(obj:0)
STE(2,8)                             6782.65512281666 	(obj:0)
STE(2,9)                                         7938 	(obj:0)
STE(2,10)                            6698.45245333336 	(obj:0)
STE(2,11)                            7695.21845666665 	(obj:0)
STE(2,12)                            8850.56333384999 	(obj:0)
STE(3,13)                            1818.90490948337 	(obj:0)
STE(3,14)                            2815.67091281666 	(obj:0)
STE(3,15)                            4033.12311615004 	(obj:0)
STE(3,16)                            2815.67091281667 	(obj:0)
STE(3,17)                            3812.43691614996 	(obj:0)
STE(3,18)                            5029.88911948331 	(obj:0)
STE(3,19)                                  3971.01579 	(obj:0)
STE(3,20)                            4967.78179333329 	(obj:0)
STE(3,21)                            6185.23399666665 	(obj:0)
STE(3,22)                            2815.67091281672 	(obj:0)
STE(3,23)                            3812.43691615002 	(obj:0)
STE(3,24)                            5029.88911948343 	(obj:0)
STE(3,25)                            3812.43691615002 	(obj:0)
STE(3,26)                            4809.20291948331 	(obj:0)
STE(3,27)                            6026.65512281666 	(obj:0)
STE(3,28)                            4967.78179333335 	(obj:0)
STE(3,29)                            5964.54779666664 	(obj:0)
STE(3,30)                                        7182 	(obj:0)
STE(3,31)                            3728.23424666671 	(obj:0)
STE(3,32)                                  4725.00025 	(obj:0)
STE(3,33)                            5942.45245333336 	(obj:0)
STE(3,34)                                  4725.00025 	(obj:0)
STE(3,35)                            5721.76625333329 	(obj:0)
STE(3,36)                            6939.21845666665 	(obj:0)
STE(3,37)                            5880.34512718334 	(obj:0)
STE(3,38)                            6877.11113051663 	(obj:0)
STE(3,39)                            8094.56333385001 	(obj:0)
y1(3,23)                             1095.70698300002 	(obj:0)
y1(3,25)                             1992.79638599998 	(obj:0)
y1(3,26)                             1095.70698300002 	(obj:0)
y1(3,28)                             1992.79638599998 	(obj:0)
y1(3,29)                             1095.70698300002 	(obj:0)
y1(3,31)                             1992.79638599998 	(obj:0)
y1(3,32)                             1095.70698300002 	(obj:0)
y1(3,34)                             1992.79638599998 	(obj:0)
y1(3,35)                             1095.70698300002 	(obj:0)
y1(3,37)                             1992.79638599998 	(obj:0)
y1(3,38)                             1095.70698300002 	(obj:0)
BG(3)                                1204.56299667522 	(obj:10)
WB(1)                                3199.95851117552 	(obj:0)
AVE(1)                               3199.95851117552 	(obj:0)
AVE(2)                               3265.15049132519 	(obj:0)
AVE(3)                               3291.35535332476 	(obj:0)
WG(2)                                3265.15049132519 	(obj:10)
WG(3)                                3291.35535332474 	(obj:10)
BG(1)                                         3377.85 	(obj:10)
BG(2)                                1173.73051833292 	(obj:10)
y1(1,1)                              897.089403000015 	(obj:0)
y1(2,4)                              1936.89979246497 	(obj:0)
y1(2,5)                                1039.810389465 	(obj:0)
y1(2,7)                              1936.89979246497 	(obj:0)
y1(2,8)                                1039.810389465 	(obj:0)
y1(2,10)                             1936.89979246497 	(obj:0)
y1(2,11)                               1039.810389465 	(obj:0)
y1(3,13)                             1992.79638599998 	(obj:0)
y1(3,14)                             1095.70698300002 	(obj:0)
y1(3,16)                             1992.79638599998 	(obj:0)
y1(3,17)                             1095.70698300002 	(obj:0)
y1(3,19)                             1992.79638599998 	(obj:0)
y1(3,20)                             1095.70698300002 	(obj:0)
y1(3,22)                             1992.79638599998 	(obj:0)
y2(1,3)                              960.592982999986 	(obj:0)
